n = 3;

%1st number: left, 2nd number: top, 3rd number: right, 4th number: bottom
pieces =
     array2d(1..n*n,1..4,
  [
   % piece 1
   4,1,9,6,
   % piece 2
   6,1,4,0,
   % piece 3
   6,9,9,1,
   % piece 4
   0,5,1,5,
   % piece 5
   6,0,6,9,
   % piece 6
   4,5,6,4,
   % piece 7
   3,4,6,4,
   % piece 8
   1,7,6,1,
   % piece 9
   6,6,2,9
  ]);